
Gurobi 10.0.3 (linux64, gurobi_cl) logging started Fri Nov 10 20:00:07 2023

Set parameter Username
Set parameter TimeLimit to value 3600
Set parameter LogFile to value "RCPSP_1750.log"
Set parameter Threads to value 32
Academic license - for non-commercial use only - expires 2024-11-06
Using license file /home/jrivera6/gurobi-licenses/v1003/compute-0-36/gurobi.lic

Gurobi Optimizer version 10.0.3 build v10.0.3rc0 (linux64)
Copyright (c) 2023, Gurobi Optimization, LLC

Read MPS format model from file RCPSP_1750.mps
Reading time = 0.13 seconds
RCPSP_1750: 75251 rows, 29890 columns, 266065 nonzeros

CPU model: Intel(R) Xeon(R) Gold 6130 CPU @ 2.10GHz, instruction set [SSE2|AVX|AVX2|AVX512]
Thread count: 32 physical cores, 32 logical processors, using up to 32 threads

Optimize a model with 75251 rows, 29890 columns and 266065 nonzeros
Model fingerprint: 0xf9c5f656
Variable types: 122 continuous, 29768 integer (29768 binary)
Coefficient statistics:
  Matrix range     [1e+00, 7e+02]
  Objective range  [1e+00, 1e+00]
  Bounds range     [1e+00, 1e+00]
  RHS range        [1e+00, 7e+02]
Presolve removed 25373 rows and 7687 columns (presolve time = 5s) ...
Presolve removed 25373 rows and 7687 columns (presolve time = 10s) ...
Presolve removed 29316 rows and 9104 columns
Presolve time: 11.40s
Presolved: 45935 rows, 20786 columns, 166139 nonzeros
Variable types: 121 continuous, 20665 integer (20665 binary)

Deterministic concurrent LP optimizer: primal and dual simplex (primal and dual model)
Showing first log only...

Root relaxation presolved: 45923 rows, 20798 columns, 166115 nonzeros


Root simplex log...

Iteration    Objective       Primal Inf.    Dual Inf.      Time
       0    9.0416262e+01   6.049984e-03   2.225791e+08     13s
    3522    9.0000000e+01   0.000000e+00   0.000000e+00     13s
    3522    9.0000000e+01   0.000000e+00   0.000000e+00     14s
Concurrent spin time: 1.44s

Solved with primal simplex (primal model)

Root relaxation: objective 9.000000e+01, 3522 iterations, 3.16 seconds (0.34 work units)
Total elapsed time = 21.55s

    Nodes    |    Current Node    |     Objective Bounds      |     Work
 Expl Unexpl |  Obj  Depth IntInf | Incumbent    BestBd   Gap | It/Node Time

     0     0   90.00000    0 1599          -   90.00000      -     -   48s
     0     0   98.00000    0 1350          -   98.00000      -     -   49s
     0     0   98.00000    0 1696          -   98.00000      -     -   72s
     0     0   98.00000    0 1734          -   98.00000      -     -   74s
     0     0   98.00000    0 1690          -   98.00000      -     -   75s
     0     0   98.00000    0 1688          -   98.00000      -     -   75s
     0     0   99.36364    0 1783          -   99.36364      -     -  104s
     0     0   99.36364    0 1706          -   99.36364      -     -  109s
     0     0   99.36364    0 1743          -   99.36364      -     -  112s
     0     0   99.36364    0 1717          -   99.36364      -     -  112s
     0     0  106.42088    0 1190          -  106.42088      -     -  176s
     0     0  106.42088    0 1173          -  106.42088      -     -  176s
     0     0  106.42088    0 1424          -  106.42088      -     -  178s
     0     0  106.42088    0 1626          -  106.42088      -     -  190s
     0     0  106.42088    0 1649          -  106.42088      -     -  202s
     0     0  106.42088    0 1590          -  106.42088      -     -  203s
H    0     0                     671.0000000  106.42088  84.1%     -  204s
     0     0  106.42088    0 1687  671.00000  106.42088  84.1%     -  206s
     0     0  106.42088    0 1005  671.00000  106.42088  84.1%     -  266s
     0     0  106.42088    0  995  671.00000  106.42088  84.1%     -  266s
     0     0  106.42088    0 1656  671.00000  106.42088  84.1%     -  324s
     0     0  106.42088    0 1663  671.00000  106.42088  84.1%     -  330s
     0     0  106.42088    0 1707  671.00000  106.42088  84.1%     -  334s
     0     0  106.42088    0 1688  671.00000  106.42088  84.1%     -  334s
     0     0  106.42088    0 1786  671.00000  106.42088  84.1%     -  368s
     0     0  106.42088    0 1754  671.00000  106.42088  84.1%     -  370s
     0     0  106.42088    0 1748  671.00000  106.42088  84.1%     -  370s
H    0     0                     660.0000000  106.42088  83.9%     -  396s
H    0     0                     602.0000000  106.42088  82.3%     -  396s
     0     0  106.71052    0 1139  602.00000  106.71052  82.3%     -  413s
     0     0  106.71052    0 1136  602.00000  106.71052  82.3%     -  414s
H    0     0                     576.0000000  106.71052  81.5%     -  428s
     0     0  106.71052    0 1404  576.00000  106.71052  81.5%     -  440s
     0     0  106.71052    0 1423  576.00000  106.71052  81.5%     -  442s
     0     0  106.71052    0 1419  576.00000  106.71052  81.5%     -  443s
     0     0  106.71052    0 1565  576.00000  106.71052  81.5%     -  451s
     0     0  106.71052    0 1678  576.00000  106.71052  81.5%     -  484s
     0     0  106.71052    0 1710  576.00000  106.71052  81.5%     -  488s
     0     0  106.71052    0 1680  576.00000  106.71052  81.5%     -  490s
H    0     0                     566.0000000  106.71052  81.1%     -  518s
H    0     0                     558.0000000  106.71052  80.9%     -  518s
H    0     0                     557.9999999  106.71052  80.9%     -  518s
     0     0  106.71052    0 1173  558.00000  106.71052  80.9%     -  539s
     0     0  106.71052    0 1311  558.00000  106.71052  80.9%     -  543s
H    0     0                     511.0000000  106.71052  79.1%     -  564s
     0     0  106.71052    0 1484  511.00000  106.71052  79.1%     -  569s
     0     0  106.71052    0 1339  511.00000  106.71052  79.1%     -  570s
     0     0  106.71052    0 1330  511.00000  106.71052  79.1%     -  620s
     0     0  106.71052    0 1432  511.00000  106.71052  79.1%     -  622s
H    0     0                     499.0000000  106.71052  78.6%     -  664s
H    0     0                     482.0000000  106.71052  77.9%     -  667s
H    0     0                     466.0000000  106.71052  77.1%     -  667s
     0     0  106.71170    0 1575  466.00000  106.71170  77.1%     -  670s
     0     0  106.71170    0 1475  466.00000  106.71170  77.1%     -  671s
     0     0  106.71170    0 1473  466.00000  106.71170  77.1%     -  671s
H    0     0                     445.0000000  106.71170  76.0%     -  722s
     0     0  106.74224    0 1163  445.00000  106.74224  76.0%     -  735s
     0     0  106.74224    0 1161  445.00000  106.74224  76.0%     -  736s
H    0     0                     427.0000000  106.74224  75.0%     -  761s
     0     0  106.84517    0 1431  427.00000  106.84517  75.0%     -  769s
     0     0  106.84517    0 1392  427.00000  106.84517  75.0%     -  770s
     0     0  107.13364    0 1709  427.00000  107.13364  74.9%     -  780s
     0     0  107.13364    0 1760  427.00000  107.13364  74.9%     -  783s
     0     0  107.13950    0 1710  427.00000  107.13950  74.9%     -  805s
     0     0  107.13950    0 1557  427.00000  107.13950  74.9%     -  808s
     0     0  107.13950    0 1553  427.00000  107.13950  74.9%     -  808s
     0     0  107.14241    0 1640  427.00000  107.14241  74.9%     -  811s
     0     0  107.14241    0 1617  427.00000  107.14241  74.9%     -  811s
     0     0  107.14241    0 1621  427.00000  107.14241  74.9%     -  815s
     0     0  107.14241    0 1618  427.00000  107.14241  74.9%     -  815s
     0     0  107.15551    0 1663  427.00000  107.15551  74.9%     -  823s
H    0     0                     414.0000000  107.15551  74.1%     -  841s
     0     0  107.22097    0 1639  414.00000  107.22097  74.1%     -  850s
     0     0  107.22097    0 1583  414.00000  107.22097  74.1%     -  852s
     0     0  107.22097    0 1582  414.00000  107.22097  74.1%     -  852s
     0     0  107.22097    0 1637  414.00000  107.22097  74.1%     -  865s
     0     0  107.22097    0 1582  414.00000  107.22097  74.1%     -  865s
     0     0  107.23649    0 1796  414.00000  107.23649  74.1%     -  884s
     0     0  107.23649    0 1674  414.00000  107.23649  74.1%     -  886s
     0     0  107.23649    0 1651  414.00000  107.23649  74.1%     -  937s
     0     0  107.23649    0 1651  414.00000  107.23649  74.1%     -  939s
     0     0  107.23649    0 1539  414.00000  107.23649  74.1%     -  940s
     0     0  107.55171    0 1647  414.00000  107.55171  74.0%     -  959s
     0     0  107.58659    0 1628  414.00000  107.58659  74.0%     -  968s
     0     0  107.58659    0 1578  414.00000  107.58659  74.0%     -  969s
     0     0  107.58659    0 1605  414.00000  107.58659  74.0%     -  987s
     0     0  107.58659    0 1601  414.00000  107.58659  74.0%     -  987s
     0     0  107.58659    0 1670  414.00000  107.58659  74.0%     - 1021s
     0     0  107.58659    0 1567  414.00000  107.58659  74.0%     - 1023s
     0     0  107.58659    0 1561  414.00000  107.58659  74.0%     - 1023s
H    0     0                     413.0000000  107.58659  73.9%     - 1080s
     0     0  107.58661    0 1614  413.00000  107.58661  73.9%     - 1103s
     0     0  107.58661    0 1651  413.00000  107.58661  73.9%     - 1106s
     0     0  107.58661    0 1589  413.00000  107.58661  73.9%     - 1106s
     0     0  107.58661    0 1594  413.00000  107.58661  73.9%     - 1282s
H    0     0                     403.0000000  107.58661  73.3%     - 1339s
     0     0  107.58661    0 1560  403.00000  107.58661  73.3%     - 1360s
     0     0  107.58661    0 1554  403.00000  107.58661  73.3%     - 1360s
     0     0  107.58661    0 1627  403.00000  107.58661  73.3%     - 1583s
     0     0  107.58661    0 1579  403.00000  107.58661  73.3%     - 1587s

Cutting planes:
  Learned: 6
  Cover: 104
  Implied bound: 16
  Clique: 56
  MIR: 202
  StrongCG: 13
  RLT: 398
  Relax-and-lift: 53

Explored 1 nodes (243568 simplex iterations) in 4261.02 seconds (165.43 work units)
Thread count was 32 (of 32 available processors)

Solution count 10: 403 413 414 ... 558

Time limit reached
Best objective 4.030000000000e+02, best bound 1.075866117968e+02, gap 73.3036%

Wrote result file 'RCPSP_1750.sol'

